%datafile

NAceitesVegetales = 13;
NAceitesNoVegetales = 17;

Meses = 12;

K = 21;

T = 1000;

Precios = [| 1100, 1200, 1300, 1100, 1150, 1100, 1100, 1400, 1300, 1300, 1400, 1200, 1100, 1250, 1200, 1400, 1500, 1200, 1350, 1300, 1250, 1150, 1355, 1205, 1255, 1300, 1400, 1400, 1200, 1155 
           | 1500, 1200, 1200, 1300, 1400, 1100, 1100, 1250, 1355, 1100, 1150, 1305, 1200, 1250, 1200, 1455, 1100, 1355, 1500, 1250, 1405, 1300, 1300, 1100, 1100, 1405, 1455, 1155, 1300, 1200
           | 1205, 1250, 1305, 1405, 1400, 1200, 1155, 1155, 1305, 1500, 1450, 1100, 1105, 1155, 1355, 1555, 1100, 1250, 1250, 1400, 1200, 1355, 1305, 1205, 1250, 1300, 1400, 1405, 1250, 1150
           | 1100, 1105, 1400, 1450, 1155, 1305, 1200, 1250, 1150, 1355, 1205, 1255, 1300, 1400, 1400, 1200, 1155, 1155, 1350, 1505, 1150, 1300, 1505, 1105, 1205, 1300, 1100, 1155, 1105, 1105
           | 1405, 1205, 1105, 1255, 1200, 1400, 1500, 1200, 1355, 1305, 1205, 1250, 1300, 1400, 1405, 1250, 1150, 1150, 1305, 1500, 1250, 1250, 1400, 1505, 1205, 1205, 1305, 1405, 1105, 1105
           | 1100, 1200, 1300, 1100, 1155, 1105, 1105, 1405, 1300, 1300, 1100, 1100, 1405, 1455, 1155, 1300, 1200, 1255, 1155, 1350, 1250, 1355, 1100, 1150, 1305, 1200, 1250, 1200, 1455, 1100
           | 1200, 1250, 1305, 1405, 1400, 1205, 1150, 1150, 1300, 1505, 1105, 1205, 1300, 1100, 1155, 1105, 1105, 1405, 1300, 1300, 1200, 1355, 1305, 1205, 1250, 1300, 1400, 1405, 1250, 1150
           | 1455, 1100, 1355, 1500, 1250, 1405, 1300, 1300, 1100, 1100, 1405, 1455, 1155, 1300, 1200, 1100, 1200, 1300, 1100, 1150, 1100, 1100, 1400, 1300, 1300, 1400, 1200, 1100, 1250, 1200 
           | 1400, 1500, 1200, 1350, 1300, 1250, 1150, 1355, 1205, 1255, 1300, 1400, 1400, 1200, 1155, 1205, 1250, 1305, 1405, 1400, 1200, 1155, 1155, 1305, 1500, 1450, 1100, 1105, 1155, 1355
           | 1250, 1150, 1150, 1305, 1500, 1250, 1250, 1400, 1505, 1205, 1205, 1305, 1405, 1105, 1105, 1100, 1200, 1300, 1100, 1155, 1105, 1105, 1405, 1300, 1300, 1100, 1100, 1405, 1455, 1155
           | 1105, 1105, 1405, 1300, 1300, 1200, 1355, 1305, 1205, 1250, 1300, 1400, 1405, 1250, 1150, 1205, 1250, 1305, 1405, 1400, 1200, 1155, 1155, 1305, 1500, 1450, 1100, 1105, 1155, 1355
           | 1450, 1100, 1100, 1150, 1350, 1550, 1100, 1250, 1250, 1400, 1505, 1205, 1205, 1305, 1405, 1105, 1105, 1255, 1355, 1105, 1100, 1100, 1400, 1300, 1300, 1400, 1200, 1100, 1250, 1200 |];

PreciosMensual = [1000, 1400, 1300, 1200, 1100, 1700, 1000, 1500, 1400, 1550, 1300, 1600];

MAXV = 1700;
MAXN = 2000;

MCAP = 4000;
MCAPR = 500;

CA = 40;
CAR = 200;

MinD = 170.0;
MaxD = 190.0;

Durezas = [200.8, 195.1, 155.0, 160.2, 180.4, 165.7, 200.9, 160.6, 205.1, 10.4, 178.8, 195.9, 203.0, 155.5, 165.0, 185.0, 204.3, 201.2, 165.0, 180.9, 205.1, 155.4, 158.8, 196.9, 202.0, 205.1, 179.0, 157.2, 198.4, 200.7]; 

RestanteFinal = [110, 70, 130, 140, 120, 100, 200, 90, 120, 150, 95, 80, 70, 130, 100, 95, 140, 110, 170, 85, 130, 140, 120, 100, 200, 80, 70, 130, 100, 95];

AceitesAUsar = [| false, false, false, false, false, false, false, false, false, false, false, false, false, false, false, false, false, false, false, false, false, false, false, false, false, false, false, false, false, false
                | false, false, false, false, false, false, false, false, false, false, false, false, false, false, false, false, false, false, false, false, false, false, false, false, false, false, false, false, false, false
                | false, false, false, false, false, false, false, false, false, false, false, false, false, false, false, false, false, false, false, false, false, false, false, false, false, false, false, false, false, false
                | false, false, false, false, false, false, false, false, false, false, false, false, false, false, false, false, false, false, false, false, false, true, false, false, false, false, false, false, false, false
                | false, false, false, false, false, false, false, true, false, false, false, false, false, false, false, false, false, false, false, false , false, false, false, false, false, false, false, false, false, false
                | false, false, false, false, false, false, false, false, false, false, false, false, false, false, false, false, false, false, false, false, false, false, false, false, false, false, false, false, false, false
                | false, false, false, false, false, false, false, false, false, false, false, false, false, false, false, false, false, false, false, false, false, false, false, false, false, false, false, false, false, false
                | false, false, false, false, false, false, false, false, false, false, false, false, false, false, false, false, false, false, false, false, false, false, false, false, false, false, false, false, false, false       
                | false, false, false, false, false, false, false, false, false, false, false, false, false, false, false, false, false, false, false, false, false, true, false, false, false, false, false, false, false, true
                | false, false, false, false, false, false, false, false, false, false, false, false, false, false, false, false, false, false, false, false, false, false, false, false, false, false, false, false, false, false
                | false, false, false, false, false, false, false, false, false, false, false, false, false, false, true, false, false, false, false, false, false, false, false, false, false, false, false, false, false, false
                | false, false, false, false, false, false, false, false, false, false, false, false, false, false, false, false, false, false, false, false, false, false, false, false, false, false, false, false, false, false
                | false, false, false, false, false, false, false, false, false, false, false, false, false, false, false, false, false, false, false, false, false, false, false, false, false, false, false, false, false, false
                | false, false, false, false, false, false, false, false, true, false, false, false, false, false, false, false, false, false, false, false, false, false, false, false, false, false, false, false, false, false
                | false, false, false, false, false, false, false, false, false, false, false, false, false, false, false, false, false, false, false, false, false, false, false, false, false, false, false, false, false, false
                | false, false, false, false, false, false, false, false, false, false, false, false, false, false, false, false, false, false, false, false, false, false, false, false, false, false, false, false, false, false
                | false, false, false, false, true, false, false, false, false, false, false, false, false, false, false, false, false, false, false, false, false, false, false, false, false, false, false, false, false, false           
                | false, false, true, false, false, false, false, false, false, false, false, false, false, false, false, false, false, false, false, false, false, false, false, false, false, false, false, false, false, false
                | false, false, false, false, false, false, false, false, false, false, false, false, false, false, false, false, false, false, false, false, false, false, false, false, false, false, false, false, false, false
                | false, false, false, false, false, false, false, false, false, false, false, false, false, false, false, false, false, false, false, false, false, false, false, false, false, true, true, false, false, false
                | false, false, false, false, false, false, false, false, false, false, false, false, false, false, false, false, false, false, false, false, false, false, false, false, false, false, false, false, false, false
                | false, false, false, false, false, false, false, false, false, false, false, false, false, false, false, false, false, false, false, false, false, false, false, false, false, false, false, false, false, false
                | false, false, false, false, false, false, false, false, false, false, false, false, false, false, false, false, false, false, false, false, false, false, false, false, false, false, false, false, false, false
                | false, false, false, false, false, false, false, false, false, false, false, false, false, false, false, false, false, false, false, false, false, false, false, false, false, false, false, false, false, false
                | false, false, false, false, false, false, false, false, false, false, false, false, false, false, false, false, false, false, false, false, false, false, false, false, false, false, false, false, false, false
                | false, false, false, false, false, false, false, false, false, false, false, false, false, false, false, false, false, false, false, false, false, false, false, false, false, false, false, false, false, false
                | true, false, true, false, false, false, false, false, false, false, false, false, false, false, false, false, false, false, false, false, false, false, false, false, false, false, false, false, false, false
                | false, false, false, false, false, false, false, false, false, false, false, false, false, false, true, false, false, false, false, false, false, false, false, false, false, false, false, false, false, false
                | false, false, false, false, false, false, true, false, false, false, false, false, false, false, false, false, false, false, false, false, false, false, false, false, false, false, false, false, false, false
                | false, false, false, false, false, false, false, false, false, false, false, false, false, false, false, false, false, false, false, false, false, false, false, true, false, false, false, false, false, false |];
                
                
MinB = 5200000;